50
22918

622 805
218 747
999 679
421 277
358 665
368 258
478 285
144 580
306 225
144 365
683 273
809 14
963 673
555 300
419 837
650 54
770 272
146 775
849 414
625 629
721 142
803 547
808 282
506 830
373 867
876 835
427 319
288 478
584 670
160 831
114 170
265 944
717 592
891 106
644 255
607 428
262 320
830 857
70 331
430 155
52 594
986 6
643 641
505 328
823 350
238 671
318 829
463 714
61 484
218 832
